c This is a randomly-generated, CNF-formatted 3SAT
c circuit containing 32 variables and 128 clauses
p cnf 32 128
-25 28 -31 0
-24 -28 32 0
24 -27 -31 0
24 -26 29 0
22 -27 -28 0
-20 26 -30 0
-20 -24 32 0
-20 -22 -26 0
-19 -26 -31 0
18 -26 28 0
18 -21 -26 0
18 21 -23 0
18 20 23 0
-18 19 26 0
17 22 29 0
16 -23 -32 0
16 -20 24 0
-16 -19 -22 0
-15 -25 31 0
15 -18 27 0
-14 29 -32 0
-14 -26 -29 0
14 -24 31 0
-14 19 -25 0
c just a test...
14 15 -28 0
-13 -22 -31 0
13 -15 25 0
-12 28 30 0
-12 18 -31 0
-12 18 25 0
-12 16 -18 0
-12 -14 -20 0
-11 18 -29 0
11 -13 28 0
-11 -13 15 0
-11 -12 -22 0
10 -23 31 0
-10 -23 -24 0
10 17 26 0
10 -17 -19 0
-10 14 21 0
-10 -12 14 0
-10 -11 26 0
-9 -16 31 0
9 15 -31 0
-9 -13 -19 0
9 -13 16 0
9 -12 -19 0
8 -26 -31 0
8 26 -31 0
8 23 -29 0
-8 -21 22 0
-8 17 -30 0
8 -12 20 0
8 -12 -14 0
-8 -9 14 0
-7 -24 -32 0
-7 24 -26 0
7 -23 28 0
-7 -21 27 0
-7 -20 -25 0
7 16 30 0
7 15 -16 0
-7 -13 -19 0
7 -12 16 0
-7 11 24 0
-7 10 31 0
7 -9 -14 0
6 21 29 0
6 -18 -24 0
-6 15 32 0
6 -14 32 0
6 -11 21 0
-6 10 27 0
-6 -10 -15 0
-6 9 -29 0
-6 7 31 0
6 -7 -24 0
-5 -27 30 0
-5 -19 -24 0
-5 17 -23 0
-5 17 19 0
5 -16 -32 0
-5 -13 -32 0
5 -13 -19 0
-5 12 18 0
5 12 17 0
-5 12 16 0
5 -11 21 0
5 -9 -14 0
-5 -6 20 0
-4 -26 30 0
4 -15 23 0
-4 -12 -21 0
-4 12 -21 0
-4 8 30 0
4 -8 -29 0
4 -7 -28 0
4 7 19 0
4 6 27 0
4 6 23 0
4 5 -26 0
-3 -23 31 0
-3 -15 -30 0
-3 13 18 0
3 13 -15 0
3 11 18 0
3 10 -30 0
-3 -9 29 0
3 -7 -30 0
3 7 12 0
-3 5 -25 0
-2 28 -29 0
-2 -25 -28 0
-2 14 -30 0
-2 -13 20 0
2 4 5 0
-2 -3 -15 0
-2 -3 5 0
1 -24 -26 0
-1 -21 23 0
-1 -18 -22 0
1 17 25 0
1 7 25 0
-1 -6 -19 0
1 -6 16 0
1 4 27 0
1 -4 8 0
